<?xml version = "1.0" standalone="yes"?>
<!-- This file has been generated by DOcplex version 2.23.222  -->
<CPLEXSolution version="1.0">
 <header
   problemName="CVRP"
   objectiveValue="12758.7"
  />
 <variables>
  <variable name="x_0_1" index="0" value="1.00000"/>
  <variable name="x_0_2" index="1" value="1.00000"/>
  <variable name="x_0_4" index="3" value="1.00000"/>
  <variable name="x_0_5" index="4" value="1.00000"/>
  <variable name="x_0_7" index="6" value="1.00000"/>
  <variable name="x_0_8" index="7" value="1.00000"/>
  <variable name="x_0_12" index="11" value="1.00000"/>
  <variable name="x_0_13" index="12" value="1.00000"/>
  <variable name="x_0_14" index="13" value="1.00000"/>
  <variable name="x_0_17" index="16" value="1.00000"/>
  <variable name="x_0_18" index="17" value="1.00000"/>
  <variable name="x_0_20" index="19" value="1.00000"/>
  <variable name="x_0_22" index="21" value="1.00000"/>
  <variable name="x_1_21" index="45" value="1.00000"/>
  <variable name="x_2_25" index="74" value="1.00000"/>
  <variable name="x_3_15" index="89" value="1.00000"/>
  <variable name="x_4_6" index="105" value="1.00000"/>
  <variable name="x_5_0" index="125" value="1.00000"/>
  <variable name="x_6_0" index="150" value="1.00000"/>
  <variable name="x_7_23" index="197" value="1.00000"/>
  <variable name="x_8_0" index="200" value="1.00000"/>
  <variable name="x_9_0" index="225" value="1.00000"/>
  <variable name="x_10_0" index="250" value="1.00000"/>
  <variable name="x_11_19" index="293" value="1.00000"/>
  <variable name="x_12_3" index="303" value="1.00000"/>
  <variable name="x_13_0" index="325" value="1.00000"/>
  <variable name="x_14_0" index="350" value="1.00000"/>
  <variable name="x_15_0" index="375" value="1.00000"/>
  <variable name="x_16_0" index="400" value="1.00000"/>
  <variable name="x_17_16" index="441" value="1.00000"/>
  <variable name="x_18_10" index="460" value="1.00000"/>
  <variable name="x_19_0" index="475" value="1.00000"/>
  <variable name="x_20_24" index="523" value="1.00000"/>
  <variable name="x_21_0" index="525" value="1.00000"/>
  <variable name="x_22_0" index="550" value="1.00000"/>
  <variable name="x_23_9" index="584" value="1.00000"/>
  <variable name="x_24_0" index="600" value="1.00000"/>
  <variable name="x_25_11" index="636" value="1.00000"/>
  <variable name="u_1" index="650" value="1.00000"/>
  <variable name="u_2" index="651" value="7.00000"/>
  <variable name="u_3" index="652" value="12.00000"/>
  <variable name="u_4" index="653" value="9.00000"/>
  <variable name="u_5" index="654" value="21.00000"/>
  <variable name="u_6" index="655" value="19.00000"/>
  <variable name="u_7" index="656" value="18.00000"/>
  <variable name="u_8" index="657" value="18.00000"/>
  <variable name="u_9" index="658" value="21.00000"/>
  <variable name="u_10" index="659" value="15.00000"/>
  <variable name="u_11" index="660" value="19.00000"/>
  <variable name="u_12" index="661" value="8.00000"/>
  <variable name="u_13" index="662" value="14.00000"/>
  <variable name="u_14" index="663" value="17.00000"/>
  <variable name="u_15" index="664" value="21.00000"/>
  <variable name="u_16" index="665" value="21.00000"/>
  <variable name="u_17" index="666" value="7.00000"/>
  <variable name="u_18" index="667" value="8.00000"/>
  <variable name="u_19" index="668" value="21.00000"/>
  <variable name="u_20" index="669" value="8.00000"/>
  <variable name="u_21" index="670" value="17.00000"/>
  <variable name="u_22" index="671" value="15.00000"/>
  <variable name="u_23" index="672" value="20.00000"/>
  <variable name="u_24" index="673" value="20.00000"/>
  <variable name="u_25" index="674" value="9.00000"/>
 </variables>
</CPLEXSolution>
